Route #1: 3 37 5 43 13 26 40
Route #2: 41 6 17 4 14 11 9 42 22 34
Route #3: 12 25 18 30 27 19 20 28 35 38 31
Route #4: 36 15 32 45 7 2
Route #5: 1 24 16 23 33 44 29 21
Route #6: 8 10 39
cost 1859.8095119585673
